<number of tasks>
20

<cycle time>
1000

<order strength>
0,189


<task times>
1 333
2 110
3 517
4 459
5 176
6 242
7 249
8 383
9 207
10 222
11 188
12 134
13 190
14 233
15 248
16 564
17 128
18 189
19 91
20 328

<precedence relations>
5,7
5,8
6,9
7,12
7,13
8,10
9,11
11,14
11,16
12,15
16,17
16,18
16,19
16,20

<end>
